
Gurobi 12.0.2 (win64) logging started Tue May 27 13:58:09 2025

Set parameter LogFile to value "C:\Ioana\_uni\honours\slp\algorithm\Main_files\results\paracetamol\Task_002_Sample002_irr_gurobi.log"
Gurobi Optimizer version 12.0.2 build v12.0.2rc0 (win64 - Windows 11.0 (26100.2))

CPU model: Intel(R) Core(TM) Ultra 5 125H, instruction set [SSE2|AVX|AVX2]
Thread count: 14 physical cores, 18 logical processors, using up to 18 threads

Non-default parameters:
TimeLimit  2200

Optimize a model with 47226 rows, 34495 columns and 146682 nonzeros
Model fingerprint: 0xb6fd3e50
Variable types: 17250 continuous, 17245 integer (17245 binary)
Coefficient statistics:
  Matrix range     [1e-04, 8e+04]
  Objective range  [4e-04, 9e-01]
  Bounds range     [1e+00, 1e+03]
  RHS range        [1e+00, 1e+00]
Found heuristic solution: objective 1.1255948
Presolve removed 34061 rows and 23987 columns
Presolve time: 0.33s
Presolved: 13165 rows, 10508 columns, 42468 nonzeros
Variable types: 5208 continuous, 5300 integer (5300 binary)

Root relaxation: objective 4.118543e-05, 289 iterations, 0.02 seconds (0.02 work units)

    Nodes    |    Current Node    |     Objective Bounds      |     Work
 Expl Unexpl |  Obj  Depth IntInf | Incumbent    BestBd   Gap | It/Node Time

     0     0    0.00004    0    4    1.12559    0.00004   100%     -    0s
H    0     0                       0.0411854    0.00004   100%     -    0s
     0     0     cutoff    0         0.04119    0.04119  0.00%     -    0s

Cutting planes:
  Gomory: 2
  Cover: 2
  MIR: 3
  Flow cover: 5
  Flow path: 1
  Network: 1
  Relax-and-lift: 3

Explored 1 nodes (490 simplex iterations) in 0.46 seconds (0.50 work units)
Thread count was 18 (of 18 available processors)

Solution count 2: 0.0411854 1.12559 

Optimal solution found (tolerance 1.00e-04)
Best objective 4.118543270446e-02, best bound 4.118543270446e-02, gap 0.0000%
